DATASET = "thpack6";
INSTANCE = "044";

WIDTH = 233;
HEIGHT = 220;
LENGTH = 587;

NO_OF_SHAPES = 15;
size = [|
  114,67,25 |
  92,79,25 |
  89,87,36 |
  95,71,36 |
  90,83,43 |
  93,39,28 |
  69,54,31 |
  107,61,37 |
  98,52,40 |
  83,69,60 |
  98,63,58 |
  45,40,26 |
  63,44,36 |
  96,56,43 |
  88,42,35 |
|];

verticality = [|
  0,0,1 |
  0,0,1 |
  0,0,1 |
  0,1,1 |
  0,1,1 |
  0,1,1 |
  0,1,1 |
  0,1,1 |
  0,1,1 |
  1,1,1 |
  1,1,1 |
  1,1,1 |
  1,1,1 |
  0,1,1 |
  0,1,1 |
|];

box_count = [
  11,
  14,
  9,
  8,
  15,
  7,
  11,
  7,
  11,
  10,
  11,
  10,
  6,
  4,
  6,
];
